GLPSOL: GLPK LP/MIP Solver, v4.55
Parameter(s) specified in the command line:
 -m tmp.mod
Reading model section from tmp.mod...
Reading data section from tmp.mod...
4330 lines were read
Generating obj...
Generating kirhoff...
Generating init_charge...
Generating batt_size...
Model has been successfully generated
GLPK Simplex Optimizer, v4.55
3449 rows, 6576 columns, 13636 non-zeros
Preprocessing...
2918 rows, 6450 columns, 13346 non-zeros
Scaling...
 A: min|aij| =  1.000e+00  max|aij| =  1.000e+00  ratio =  1.000e+00
Problem data seem to be well scaled
Constructing initial basis...
Size of triangular part is 2437
      0: obj =   0.000000000e+00  infeas =  1.882e+03 (481)
    500: obj =   0.000000000e+00  infeas =  1.187e+03 (258)
   1000: obj =   6.500000000e+01  infeas =  5.900e+01 (152)
*  1174: obj =   1.070000000e+02  infeas =  0.000e+00 (138)
*  1386: obj =   3.600000000e+01  infeas =  0.000e+00 (132)
OPTIMAL LP SOLUTION FOUND
Time used:   0.3 secs
Memory used: 12.9 Mb (13499756 bytes)
#OUTPUT:
36
-73 0 -62 3 -61 -14 -21 -46 2 -46 -26 -23 0 0 2 -5 -33 2 0 -1 0 2 0 0 -3 1 -1 0 -2 0 0 0 -1 4 -35 0 0 0 0 3 0 -44 0 0 0 0 2 0 -2 0 0 -3 -9 0 7 -1 0 0 4 1 0 0 0 0 0 -1 2 -1 2 0 0 0 0 2 0 -2 0 0 0 0 0 0 -1 0 0 1 0 0 0 1 0 0 0 0 0 1 0 0 0 1 0 36 0 0 -3 5 0 0 4 0 0 0 3 0 -10 -1 -3 0 4 0 0 0 0 0 0 0 0 0 0 0 0 0 0 0 0 0 -1 12 -6 -3 0 0 0 0 -4 0 0 0 0 0 0 0 0 0 0 -4 -75 -4 0 -4 -2 0 0 0 0 4 0 -1 0 1 -47 0 0 0 0 0 0 -5 -10 0 0 0 0 0 0 0 0 0 0 0 0 0 0 0 0 -37 0 0 2 2 0 0 2 0 -2 0 0 -1 10 0 0 0 0 0 0 10 -5 0 0 -1 0 0 0 0 0 -6 0 0 -1 -2 1 0 0 1 0 0 1 0 -1 0 0 0 0 0 0 0 0 0 0 0 0 2 2 0 0 0 0 1 0 0 0 0 0 0 0 0 0 0 0 0 0 0 0 0 -4 0 0 0 0 0 1 0 1 0 0 0 0 0 0 2 0 0 0 0 0 0 0 0 0 4 0 -1 0 0 0 0 0 0 0 0 0 -2 2 0 0 0 0 0 0 0 0 0 0 0 0 0 0 0 0 0 0 1 0 0 0 0 0 -2 -3 0 0 0 0 0 0 0 -6 0 0 0 0 0 0 0 0 0 0 0 0 0 0 0 0 3 -6 -4 0 0 0 0 0 0 0 0 0 0 0 0 0 0 0 3 0 0 0 0 0 0 0 0 0 0 0 0 2 0 0 0 0 0 0 0 0 0 0 0 0 0 -5 0 0 0 0 0 0 0 10 0 0 10 0 0 0 0 0 0 -2 0 0 0 0 0 0 0 0 0 0 0 0 0 0 0 0 0 -17 0 0 0 0 0 0 0 0 -1 0 -9 -2 0 0 0 0 0 3 0 0 0 6 0 47 0 5 0 0 0 0 36 2 0 0 2 1 -10 0 5 0 0 -1 -1 -1 -1 0 -2 0 0 0 5 -1 0 1 -2 0 -4 1 0 -2 0 2 0 0 0 0 0 -1 0 0 2 0 0 -3 -75 0 -5 0 -2 2 -3 -20 4 0 0 0 0 0 0 -3 0 0 0 0 0 0 0 -2 0 0 0 1 -1 0 0 0 0 0 5 0 0 -10 0 2 0 0 17 0 0 0 0 0 0 0 0 0 0 0 0 0 0 0 0 0 0 0 0 0 0 0 0 0 0 0 0 0 0 0 0 0 0 0 0 0 0 0 0 0 0 0 0 0 0 0 0 
-11 0 -48 0 -47 0 0 -4 0 -47 -4 -7 0 0 0 0 2 0 0 -1 0 0 0 0 0 0 0 0 0 0 0 0 -7 0 0 0 0 0 0 0 0 0 0 0 0 0 0 0 0 0 0 9 0 0 -7 -1 0 2 -4 0 0 0 0 0 0 0 0 -1 0 -1 0 0 0 0 0 0 0 0 0 0 0 0 2 0 0 -1 0 0 0 0 0 0 0 0 0 0 0 0 0 3 0 0 0 0 0 0 0 0 0 0 0 0 0 0 -62 0 0 0 0 0 0 0 0 4 0 0 0 0 0 0 0 5 0 0 0 5 -2 0 0 8 0 0 0 0 4 0 3 0 0 0 0 0 0 0 0 4 0 -4 0 -4 0 0 0 0 0 -4 0 0 0 0 -2 2 0 0 0 0 0 0 -67 0 0 0 0 0 0 0 0 0 0 0 0 0 0 1 0 0 0 0 0 0 0 0 0 0 0 0 0 0 0 0 0 0 1 0 -77 0 0 0 0 0 0 2 0 4 0 0 0 0 0 0 2 0 0 0 0 0 7 0 0 0 0 0 0 0 0 0 0 0 0 0 0 0 0 0 0 0 0 0 0 0 0 0 0 -3 0 0 0 0 0 0 0 0 0 0 0 0 0 0 0 0 2 0 0 0 0 0 0 0 0 0 0 0 0 0 0 0 0 0 0 0 0 0 0 0 0 0 0 0 0 0 0 -1 0 0 0 0 0 0 0 0 0 0 0 0 0 0 0 0 0 0 0 0 0 1 0 0 0 0 0 0 0 0 0 0 0 0 0 0 0 0 0 0 0 0 0 0 0 0 0 0 0 0 0 -9 0 4 0 0 0 0 0 0 0 0 0 0 0 0 0 0 0 0 0 0 0 -1 0 0 0 0 0 0 0 0 2 0 0 0 0 0 0 0 0 0 0 0 0 0 0 0 0 0 0 0 0 0 0 0 0 0 0 0 0 0 0 0 0 0 0 0 0 0 0 0 0 0 0 0 0 0 0 0 0 0 0 0 0 0 0 0 0 0 0 -1 0 -4 0 0 -1 1 0 0 -3 0 0 0 0 -2 2 -2 0 0 0 0 0 0 0 0 0 0 0 0 0 0 -4 0 -2 0 0 -7 0 0 0 0 3 0 -2 0 0 0 4 -4 0 0 0 0 1 0 0 0 0 0 0 0 0 0 0 0 0 0 0 0 0 0 0 9 0 -4 0 0 0 0 0 0 0 0 0 0 1 0 0 0 -2 0 0 0 0 0 0 0 0 0 0 0 0 0 0 0 0 0 0 0 0 0 0 0 0 0 0 0 0 0 0 0 0 0 0 0 0 0 0 0 0 0 0 0 0 0 0 0 0 0 0 0 0 0 0 0 0 0 0 0 0 0 0 0 0 0 0 0 
-57 0 -59 0 -24 -14 -1 -48 -1 -10 0 -4 0 0 0 -9 0 0 0 -35 0 -1 0 0 -8 0 0 0 0 0 0 0 0 0 0 0 -1 0 0 0 0 0 2 0 0 0 0 0 0 0 0 0 -4 0 -4 -35 0 0 0 0 0 0 0 0 0 -8 0 -35 0 0 0 0 0 0 0 0 0 0 0 0 0 0 5 0 0 0 0 0 0 1 0 0 0 0 0 -1 0 0 0 0 0 0 0 0 -3 0 0 0 0 0 0 0 0 4 -10 0 0 0 0 -38 0 0 0 0 0 0 0 0 0 0 0 0 0 0 0 0 0 -4 -1 4 0 0 0 0 0 4 0 0 0 -1 0 0 0 0 0 0 0 0 0 0 0 0 0 0 -4 0 0 0 0 0 -48 0 0 -4 0 0 0 -9 -10 0 0 0 0 0 0 0 0 0 0 0 0 0 0 0 0 -5 0 0 0 0 0 0 0 0 0 0 0 0 0 0 0 0 0 0 0 5 -5 0 0 0 0 0 0 0 0 0 0 0 0 0 0 0 0 0 0 0 0 0 0 0 0 -1 0 0 0 0 0 0 0 0 0 0 0 0 0 0 0 0 0 0 0 0 0 0 0 0 0 0 0 0 0 0 0 0 0 0 0 0 0 0 0 0 0 0 0 0 0 0 0 0 0 0 0 0 0 0 0 0 0 0 0 3 0 0 0 0 0 0 0 0 0 0 0 0 0 0 0 0 0 0 0 -1 0 0 0 0 0 -1 0 0 0 0 0 0 0 0 0 0 0 0 0 0 0 0 0 0 0 0 0 0 0 0 0 0 0 0 0 0 4 0 0 0 0 0 0 0 0 0 0 0 0 0 0 0 0 0 0 0 0 0 -38 0 0 0 0 0 0 0 0 0 0 0 0 -1 0 0 0 0 0 0 0 0 0 0 0 0 0 0 0 0 0 0 0 0 0 0 5 0 0 5 0 0 0 0 0 0 0 0 0 0 0 0 -1 0 0 0 0 0 0 0 0 0 0 0 0 0 0 0 0 0 0 0 0 -1 2 0 0 0 0 0 0 0 -4 0 0 0 0 0 -14 0 9 0 0 0 0 0 0 0 0 0 1 0 0 5 0 0 0 0 0 0 0 0 0 0 0 0 0 0 0 0 0 0 -3 0 0 0 0 0 0 0 0 1 0 0 0 0 0 0 0 0 0 -4 0 0 0 0 0 0 0 0 0 0 0 0 0 0 0 0 0 0 0 1 0 0 0 0 0 0 0 0 0 0 0 0 0 0 -5 0 0 0 1 0 0 0 0 0 0 0 0 0 0 0 0 0 0 0 0 0 0 0 0 0 0 0 0 0 0 0 0 0 0 0 0 0 0 0 0 0 0 0 0 0 0 0 0 0 0 0 0 0 
-25 0 0 0 0 -1 0 -5 0 1 0 -11 -9 0 0 -1 0 0 -8 0 0 0 -1 0 -1 -1 0 0 0 0 0 0 -7 0 0 0 -1 0 0 0 0 0 -2 0 0 0 0 0 0 0 0 1 -4 0 -7 0 0 0 0 0 0 0 0 0 0 -4 0 0 0 0 -2 0 0 0 0 0 0 0 0 0 0 0 5 0 0 0 0 0 0 -1 0 0 0 0 0 0 0 0 0 -3 0 0 0 0 3 0 0 0 0 0 0 -5 0 1 0 0 0 0 0 0 0 0 0 0 0 -5 0 0 0 0 0 0 0 0 0 0 0 0 0 -1 0 0 0 0 0 5 0 0 0 0 0 0 0 0 0 0 0 0 0 0 0 0 0 0 4 0 1 0 0 0 -5 0 0 4 0 0 0 0 0 0 0 0 0 0 0 0 0 0 0 0 0 0 0 -1 0 -4 0 0 0 -2 0 0 0 0 0 0 0 0 0 0 0 0 -1 0 0 3 -4 0 0 0 0 0 0 -7 0 0 0 0 0 0 0 0 0 0 0 0 7 0 -2 0 0 0 0 0 0 0 0 0 0 0 0 0 0 0 0 0 -17 0 0 0 0 0 -17 0 0 0 0 0 0 0 0 0 0 0 0 0 0 0 0 0 0 0 0 0 0 0 0 0 0 -2 0 0 0 0 0 0 0 0 0 0 0 0 0 0 0 0 0 0 0 0 0 0 0 0 0 0 0 0 0 0 0 0 0 0 0 0 0 -1 0 0 0 0 0 -1 0 0 0 0 0 0 0 0 0 0 0 0 0 0 0 0 0 0 -3 0 0 0 0 0 2 0 0 0 0 -1 0 0 0 0 0 0 0 0 0 0 0 0 0 0 0 0 0 0 0 0 0 1 0 0 0 0 0 0 0 0 2 0 0 0 0 0 0 0 0 0 0 0 0 0 2 0 0 0 0 0 0 0 3 0 0 3 0 0 0 0 0 0 0 0 0 0 0 0 0 0 0 0 0 0 0 0 0 0 0 0 0 0 0 0 0 0 0 0 0 -1 0 0 0 0 2 3 0 0 -7 0 0 0 0 0 5 0 0 0 0 0 0 0 0 0 0 0 0 0 0 4 -10 0 0 0 -2 -7 0 0 0 0 0 0 0 0 0 2 0 0 0 0 0 0 0 0 0 0 0 1 0 0 0 0 0 0 0 0 3 0 0 0 0 1 0 0 0 0 0 0 0 0 0 0 0 0 -1 0 0 0 -2 0 0 0 0 0 0 0 0 0 0 -2 0 0 -3 0 0 0 0 0 0 0 0 0 0 0 0 0 0 0 0 0 0 0 0 0 0 0 0 0 0 0 0 0 0 0 0 0 0 0 0 0 0 0 0 0 0 0 0 0 0 0 0 0 0 0 0 0 
-73 0 -63 -1 -62 -14 -7 -13 0 -47 -11 -24 -9 -7 0 -9 -6 0 -3 -1 0 0 0 0 -14 -1 -1 -2 0 -6 -1 -4 -5 5 -20 0 0 -76 4 3 0 44 0 0 0 -3 0 0 -4 0 0 -66 -9 0 -7 -1 0 4 0 4 0 0 -1 0 -4 -15 0 0 0 0 0 0 0 0 0 0 0 0 2 1 -4 2 5 0 -1 0 0 0 -77 -1 0 0 1 0 -9 0 0 0 -1 5 0 43 1 0 3 4 0 0 -7 0 0 0 0 0 15 1 0 0 -7 0 0 0 0 10 0 0 0 0 1 0 0 5 1 0 0 5 -7 2 0 7 0 0 1 0 0 1 0 0 0 0 0 0 0 0 0 0 0 -5 0 -4 0 0 -1 0 3 0 0 -1 0 -1 -5 4 0 3 0 0 0 4 10 -3 0 0 0 0 0 0 0 -1 0 0 1 0 0 0 0 -43 0 0 0 -1 3 0 5 0 0 0 0 0 10 0 0 0 0 0 0 7 1 0 0 -1 0 2 0 0 0 0 -1 0 1 0 -3 0 0 -1 3 0 5 0 4 0 -75 0 0 0 0 0 0 0 0 0 0 0 0 0 3 0 0 0 0 0 0 -1 0 0 1 0 4 0 0 0 0 0 0 0 -2 0 0 0 0 0 7 0 3 0 0 0 2 0 0 -1 0 0 0 0 0 0 -44 0 0 -6 0 0 0 -4 0 0 0 0 0 2 0 0 0 -7 0 0 0 0 2 1 0 0 0 -3 0 0 0 0 0 0 0 1 0 0 -10 7 0 0 0 0 0 0 0 0 0 0 0 0 0 0 0 0 -2 0 0 0 0 0 0 0 0 0 0 -9 -5 0 0 0 0 4 0 0 0 0 0 0 1 0 0 0 0 0 2 0 0 0 0 0 0 -1 0 0 1 0 -2 0 0 0 0 0 0 0 0 4 1 -1 0 0 0 0 0 4 0 0 0 0 8 0 0 8 0 -2 0 0 0 0 -3 0 0 0 0 0 0 0 0 0 0 0 0 0 0 0 0 0 -2 0 0 1 0 1 0 -1 0 -1 0 -9 0 0 -2 2 -1 0 -7 0 0 -9 8 -4 5 -4 -4 3 1 0 0 43 2 -5 0 0 0 -10 0 -1 0 1 -2 1 1 -5 0 1 -1 0 0 5 -7 0 0 1 10 -4 0 0 -3 -2 0 0 -1 0 0 0 -1 10 -7 0 3 -3 0 0 2 0 0 0 0 9 5 0 -4 0 0 0 -1 0 0 -2 0 0 0 1 0 0 -3 5 0 0 -1 5 -4 -1 0 0 1 0 -4 0 -8 2 3 0 0 2 -1 -1 0 0 0 0 0 0 0 0 0 0 0 0 0 0 0 0 0 0 0 0 0 0 0 0 0 0 0 0 0 0 0 0 0 0 0 0 0 0 0 0 0 0 0 0 0 0 
#OUTPUT END
Model has been successfully processed
